1111100 AB
315 349 369 387 405 424 444 464 484 505 525 545 584 623 662 701 720 740 759 779 798 837 876 917 956 996 1036 1056 1076 1096 1116 1136 1156 1176 1216 1255 1292 1327 1361 1395 1429
1111100 BA
332 366 386 404 422 444 464 484 504 525 545 563 602 641 680 719 738 758 777 797 816 855 894 935 974 1014 1054 1074 1094 1114 1134 1154 1174 1194 1234 1271 1307 1342 1376 1410 4
0000011 AB
315 349 383 417 451 485 519 558 597 616 636 655 675 694 714 733 772 811 830 850 869 890 909 930 949 969 988 1008 1027 1047 1086 1120 1159 1198 1215 1255 1292 1327 1361 1395 1429
0000011 BA
332 366 400 434 468 502 536 576 615 634 654 673 693 712 732 751 790 829 848 868 887 908 927 948 967 987 1006 1026 1045 1065 1104 1138 1177 1216 1233 1273 1307 1342 1376 1410 4
